n_res = 4;
rcap = [32, 34, 86, 69];
rtype = [1, 1, 2, 2];
n_tasks = 16;
modes = [ {1, 2}, {3, 4}, {5, 6}, {7, 8}, {9, 10}, {11, 12}, {13, 14}, {15, 16}, {17, 18}, {19, 20}, {21, 22}, {23, 24}, {25, 26}, {27, 28}, {29, 30}, {31, 32} ];
succ = [ {4, 5, 15}, {4, 5, 8}, {4, 7, 8}, {6, 9, 12}, {11, 12, 14}, {10}, {15, 16}, {9, 11, 15}, {10, 14}, {13}, {13}, {16}, {16}, {}, {}, {} ];
n_opt = 32;
dur = [7, 9, 5, 7, 6, 8, 2, 2, 1, 4, 8, 10, 1, 3, 2, 4, 3, 8, 1, 8, 5, 9, 1, 3, 5, 6, 5, 9, 3, 4, 2, 8];
rreq = [|  6,  2,  5,  4,  8,  8,  7,  7,  7,  3,  4,  2,  4,  3,  6,  6,  8,  6,  7,  5,  6,  6,  6,  3, 10,  4,  6,  6,  8,  6,  3,  3
        |  4,  2,  8,  6,  9,  5,  1,  4,  7,  7,  7,  5,  7,  7,  6,  6,  9,  6,  9,  9,  8,  6,  6,  4,  9,  7,  2,  2,  4,  3,  7,  7
        |  0,  0,  0,  0,  7,  0,  6,  0,  0,  4,  0,  6,  8,  6,  7,  0,  0,  1,  0,  0,  9,  0,  9,  0,  6,  5,  8,  7,  7,  7,  8,  0
        |  6,  5,  7,  5,  0,  4,  0,  9,  7,  0,  7,  0,  0,  0,  0,  4,  5,  0,  4,  4,  0,  7,  0,  2,  0,  0,  0,  0,  0,  0,  0,  7 |];
